p tw 35 40
1 2
2 13
3 4
4 5
5 6
6 7
7 8
7 10
8 9
9 10
10 11
11 12
12 14
13 24
14 15
15 16
16 17
16 26
17 18
17 26
18 19
19 20
20 21
21 22
21 23
22 28
23 25
24 30
25 28
26 27
27 28
28 29
30 31
30 35
31 32
31 33
32 33
33 34
34 28
35 3
